105800
76,16,73,39,10,32,26,6,55,50,71,80,59,46,48,33,56,42,2,11,22,54,41,24,68,77,14,60,5,78,82,7,27,34,29,1,37,15,74,43,67,58,52,3,62,38,40,51,49,64,17,36,12,0,9,28,63,72,44,45,53,79,61,13,69,25,75,66,19,65,35,70,20,47,23,30,18,4,21,81,31,57,8
